W=4;
H=3;

MAX_TIME=8;
MAX_TRACKS=7;

TARGET=(1,4);

TRAINS=[(3,4,LEFT)];

INIT_POS=[
(1,4,STRAIGHT_RL),
(2,2,EMPTY),
(2,3,EMPTY),
(2,4,EMPTY),
(3,4,STRAIGHT_RL),
];
TUNNEL_PAIRS=[];

GATES=[];
ACTIVATIONS=[];

DSWITCHES=[];

STATIONS=[];
